n_res = 4;
rcap = [13, 10, 84, 81];
rtype = [1, 1, 2, 2];
n_tasks = 16;
modes = [ {1, 2, 3}, {4, 5, 6}, {7, 8, 9}, {10, 11, 12}, {13, 14, 15}, {16, 17, 18}, {19, 20, 21}, {22, 23, 24}, {25, 26, 27}, {28, 29, 30}, {31, 32, 33}, {34, 35, 36}, {37, 38, 39}, {40, 41, 42}, {43, 44, 45}, {46, 47, 48} ];
succ = [ {4, 8, 9}, {5, 8, 11}, {8, 10}, {5, 6, 13}, {7, 10}, {10, 11}, {14}, {13, 16}, {12, 14}, {14, 15, 16}, {15}, {13, 16}, {15}, {}, {}, {} ];
n_opt = 48;
dur = [1, 3, 6, 1, 4, 5, 2, 9, 10, 3, 6, 8, 1, 6, 8, 6, 7, 10, 4, 6, 6, 2, 4, 10, 1, 4, 10, 1, 6, 7, 1, 5, 6, 3, 5, 9, 6, 10, 10, 5, 7, 8, 1, 6, 7, 1, 6, 9];
rreq = [|  5,  2,  0,  4,  0,  3, 10, 10,  9,  0,  8,  0,  8,  7,  0,  0,  5,  3,  0,  4,  6,  9,  0,  0,  8,  5,  0,  0,  7,  0,  4,  4,  0,  0,  0,  0,  8,  7,  0,  8,  6,  5,  9,  2,  0,  4,  0,  2
        |  0,  0,  5,  0,  8,  0,  0,  0,  0, 10,  0,  6,  0,  0,  6,  8,  0,  0,  8,  0,  0,  0,  8,  8,  0,  0,  2,  7,  0,  6,  0,  0,  3,  6,  6,  5,  0,  0,  6,  0,  0,  0,  0,  0, 10,  0,  8,  0
        | 10,  9,  8,  4,  0,  4,  0,  8,  0,  1,  0,  0,  0,  8,  6,  0,  0,  3,  0,  7,  0,  9,  7,  3,  0,  2,  0,  4,  0,  0,  0,  2,  0,  3,  0,  0,  0,  0, 10,  4,  0,  0,  0,  8,  0,  1,  1,  1
        |  0,  0,  0,  0,  7,  0,  5,  0,  5,  0,  7,  5,  5,  0,  0,  7,  3,  0,  4,  0,  2,  0,  0,  0, 10,  0,  7,  0,  5,  4,  5,  0,  3,  0,  6,  4,  3,  3,  0,  0, 10,  9,  7,  0,  6,  0,  0,  0 |];
